(set-info :smt-lib-version 2.6)
(set-logic QF_S)
(set-info :source |
Generated by: Murphy Berzish, Mitja Kulczynski, Federico Mora, Florin Manea, Joel Day, Dirk Nowotka, Vijay Ganesh, Zhengyang Lu
Generated on: 2020-10-01
Description: Translated from a collection of real-world regex queries, AutomataArk, collected by Loris D’Antoni and Fang Wang: https://github.com/lorisdanto/automatark
Application: Evaluate solvers on real-world regex queries
Target solver: Z3str3RE, CVC4, OSTRICH, Z3seq, Z3str3, Z3-Trau
Publications: Berzish, M., Kulczynski, M., Mora, F., Manea, F., Day, J. D., Nowotka, D., & Ganesh, V. (2021, July). An SMT solver for regular expressions and linear arithmetic over string length. In CAV 2021.
|)
(set-info :license "https://creativecommons.org/licenses/by/4.0/")
(set-info :category "industrial")
(set-info :status unsat)

(declare-const X String)
(assert (not (str.in_re X (re.++ (str.to_re "/.cis") (re.union (str.to_re "?") (str.to_re "\u{5c}") (str.to_re "/")) (str.to_re "/smiU\u{a}")))))
(assert (str.in_re X (re.++ (str.to_re "Toolbar") (re.* (re.union (str.to_re "\u{a}") (str.to_re "\u{d}"))) (str.to_re "User-Agent:") (re.+ (re.union (re.range "0" "9") (re.range "A" "Z") (re.range "a" "z") (str.to_re "_"))) (str.to_re "Host:") (re.* re.allchar) (str.to_re "toX-Mailer:\u{13}Logsmax-Cookie:AppName\u{a}"))))
(assert (str.in_re X (re.++ (re.union ((_ re.loop 1 1) (re.range "0" "9")) (re.++ ((_ re.loop 1 1) (re.range "0" "9")) ((_ re.loop 1 1) (re.range "0" "9"))) (re.++ ((_ re.loop 1 1) (re.range "1" "3")) ((_ re.loop 1 1) (re.range "0" "6")) ((_ re.loop 1 1) (re.range "0" "5")))) (str.to_re "d") (re.union ((_ re.loop 1 1) (re.range "0" "9")) (re.++ (str.to_re "1") ((_ re.loop 1 1) (re.range "0" "9"))) (re.++ ((_ re.loop 1 1) (re.range "1" "2")) ((_ re.loop 1 1) (re.range "0" "3")))) (str.to_re "h") (re.union ((_ re.loop 1 1) (re.range "0" "9")) (re.++ ((_ re.loop 1 1) (re.range "1" "5")) ((_ re.loop 1 1) (re.range "0" "9")))) (str.to_re "m\u{a}"))))
(assert (str.in_re X (re.union (re.++ ((_ re.loop 3 3) (re.++ (re.union (re.++ (re.opt (re.++ (re.opt (str.to_re "1")) (re.range "0" "9"))) (re.range "0" "9")) (re.++ (str.to_re "2") (re.range "0" "4") (re.range "0" "9")) (re.++ (str.to_re "25") (re.range "0" "5"))) (str.to_re "."))) (re.union (re.++ (re.opt (re.++ (re.opt (str.to_re "1")) (re.range "0" "9"))) (re.range "0" "9")) (re.++ (str.to_re "2") (re.range "0" "4") (re.range "0" "9")) (re.++ (str.to_re "25") (re.range "0" "5")))) (re.++ ((_ re.loop 1 4) (re.union (re.range "0" "9") (re.range "a" "f") (re.range "A" "F"))) ((_ re.loop 7 7) (re.++ (str.to_re ":") ((_ re.loop 1 4) (re.union (re.range "0" "9") (re.range "a" "f") (re.range "A" "F")))))) (re.++ (str.to_re "\u{a}") ((_ re.loop 0 5) (re.++ ((_ re.loop 1 4) (re.union (re.range "0" "9") (re.range "a" "f") (re.range "A" "F"))) (str.to_re ":"))) (str.to_re "::") ((_ re.loop 0 5) (re.++ ((_ re.loop 1 4) (re.union (re.range "0" "9") (re.range "a" "f") (re.range "A" "F"))) (str.to_re ":"))) ((_ re.loop 1 4) (re.union (re.range "0" "9") (re.range "a" "f") (re.range "A" "F")))))))
(assert (str.in_re X (re.++ (str.to_re "ovpl") (re.+ (re.union (str.to_re " ") (str.to_re "\u{9}") (str.to_re "\u{a}") (str.to_re "\u{c}") (str.to_re "\u{d}"))) (str.to_re "}{Port:") (re.* re.allchar) (str.to_re "SOAPAction:") (re.* re.allchar) (str.to_re "adfsgecoiwnf\u{1b}Host:?search=\u{a}"))))
(check-sat)

(exit)
